c "665987.clq"
p edge 200 784
e 1 5
e 1 6
e 1 9
e 1 11
e 1 13
e 1 14
e 1 17
e 1 24
e 1 25
e 1 39
e 1 48
e 1 49
e 1 54
e 1 56
e 1 61
e 1 65
e 1 83
e 1 85
e 1 94
e 1 96
e 1 99
e 1 109
e 1 139
e 1 149
e 1 155
e 1 163
e 1 171
e 1 180
e 1 182
e 1 194
e 2 5
e 2 6
e 2 7
e 2 8
e 2 10
e 2 13
e 2 16
e 2 20
e 2 21
e 2 24
e 2 25
e 2 38
e 2 41
e 2 44
e 2 47
e 2 59
e 2 64
e 2 68
e 2 102
e 2 104
e 2 116
e 2 117
e 2 124
e 2 141
e 2 149
e 2 166
e 2 170
e 2 191
e 3 5
e 3 6
e 3 7
e 3 8
e 3 11
e 3 15
e 3 45
e 3 46
e 3 50
e 3 53
e 3 74
e 3 79
e 3 84
e 3 122
e 3 123
e 3 124
e 3 164
e 3 177
e 3 188
e 3 197
e 4 5
e 4 7
e 4 9
e 4 51
e 4 57
e 4 68
e 4 76
e 4 78
e 4 89
e 4 119
e 4 133
e 4 135
e 4 151
e 4 178
e 4 185
e 4 192
e 5 6
e 5 7
e 5 8
e 5 9
e 5 10
e 5 12
e 5 13
e 5 14
e 5 15
e 5 18
e 5 19
e 5 21
e 5 24
e 5 26
e 5 28
e 5 30
e 5 31
e 5 42
e 5 45
e 5 58
e 5 59
e 5 60
e 5 69
e 5 80
e 5 84
e 5 97
e 5 104
e 5 105
e 5 118
e 5 120
e 5 124
e 5 137
e 5 146
e 5 147
e 5 149
e 5 151
e 5 159
e 5 171
e 5 176
e 5 177
e 5 189
e 6 10
e 6 11
e 6 12
e 6 13
e 6 14
e 6 15
e 6 18
e 6 19
e 6 20
e 6 21
e 6 24
e 6 27
e 6 28
e 6 32
e 6 33
e 6 34
e 6 39
e 6 46
e 6 47
e 6 53
e 6 54
e 6 55
e 6 57
e 6 64
e 6 65
e 6 72
e 6 80
e 6 81
e 6 82
e 6 84
e 6 86
e 6 93
e 6 95
e 6 96
e 6 102
e 6 115
e 6 122
e 6 126
e 6 133
e 6 140
e 6 147
e 6 150
e 6 168
e 7 8
e 7 12
e 7 17
e 7 20
e 7 22
e 7 23
e 7 30
e 7 33
e 7 38
e 7 52
e 7 58
e 7 68
e 7 69
e 7 83
e 7 88
e 7 96
e 7 105
e 7 109
e 7 110
e 7 118
e 7 121
e 7 123
e 7 138
e 7 148
e 7 158
e 7 162
e 7 192
e 8 9
e 8 11
e 8 16
e 8 26
e 8 29
e 8 31
e 8 34
e 8 44
e 8 55
e 8 58
e 8 62
e 8 67
e 8 70
e 8 74
e 8 89
e 8 90
e 8 108
e 8 113
e 8 128
e 8 131
e 8 155
e 8 166
e 8 174
e 8 175
e 8 177
e 8 178
e 9 10
e 9 14
e 9 21
e 9 26
e 9 32
e 9 35
e 9 45
e 9 138
e 9 156
e 9 162
e 10 12
e 10 17
e 10 31
e 10 41
e 10 54
e 10 61
e 10 108
e 10 114
e 10 119
e 10 127
e 10 130
e 10 139
e 10 142
e 10 143
e 10 144
e 10 151
e 11 22
e 11 40
e 11 56
e 12 16
e 12 25
e 12 30
e 12 42
e 12 56
e 12 60
e 12 90
e 12 144
e 12 150
e 12 154
e 12 179
e 12 181
e 12 185
e 13 16
e 13 17
e 13 35
e 13 66
e 13 70
e 13 134
e 13 136
e 13 160
e 13 169
e 13 174
e 13 177
e 14 15
e 14 18
e 14 22
e 14 27
e 14 39
e 14 67
e 14 71
e 14 97
e 14 113
e 14 137
e 14 140
e 14 164
e 14 197
e 15 25
e 15 32
e 15 37
e 15 50
e 15 63
e 15 67
e 15 70
e 15 72
e 15 77
e 15 87
e 15 145
e 15 152
e 15 199
e 16 19
e 16 20
e 16 36
e 16 40
e 16 46
e 16 65
e 16 71
e 16 78
e 16 86
e 16 92
e 16 93
e 16 106
e 16 131
e 16 194
e 17 18
e 17 22
e 17 39
e 17 111
e 17 118
e 17 156
e 18 19
e 18 29
e 18 75
e 18 107
e 18 119
e 19 23
e 19 27
e 19 28
e 19 35
e 19 43
e 19 49
e 19 50
e 19 51
e 19 52
e 19 53
e 19 70
e 19 73
e 19 85
e 19 115
e 19 121
e 19 125
e 19 188
e 19 196
e 19 199
e 20 33
e 20 34
e 20 66
e 20 87
e 20 108
e 20 143
e 20 164
e 20 167
e 21 23
e 21 26
e 21 28
e 21 29
e 21 30
e 21 73
e 21 85
e 21 90
e 21 153
e 22 23
e 22 36
e 22 63
e 22 69
e 22 72
e 22 90
e 22 93
e 22 157
e 22 159
e 23 36
e 23 45
e 23 48
e 23 75
e 23 79
e 23 85
e 23 92
e 23 118
e 23 129
e 23 138
e 23 158
e 23 170
e 23 193
e 24 44
e 24 78
e 24 112
e 24 117
e 24 142
e 25 56
e 25 71
e 25 108
e 26 27
e 26 32
e 26 37
e 26 38
e 26 48
e 26 58
e 26 102
e 26 112
e 26 115
e 26 125
e 26 145
e 26 184
e 27 31
e 27 34
e 27 37
e 27 41
e 27 42
e 27 43
e 27 47
e 27 51
e 27 61
e 27 68
e 27 81
e 27 99
e 27 109
e 27 145
e 27 153
e 28 29
e 28 35
e 28 40
e 28 49
e 28 53
e 28 62
e 28 79
e 28 81
e 28 82
e 28 83
e 28 100
e 28 127
e 28 200
e 29 37
e 29 38
e 29 40
e 29 43
e 29 60
e 29 65
e 29 71
e 29 77
e 29 80
e 29 105
e 29 121
e 29 128
e 29 130
e 29 136
e 29 161
e 29 165
e 29 174
e 29 194
e 30 122
e 30 145
e 30 148
e 30 186
e 30 196
e 31 43
e 31 46
e 31 59
e 31 73
e 31 82
e 31 104
e 31 133
e 31 146
e 31 161
e 32 33
e 32 44
e 32 47
e 32 75
e 32 98
e 32 135
e 32 139
e 32 189
e 32 196
e 33 52
e 33 91
e 33 132
e 33 152
e 34 116
e 34 130
e 34 187
e 35 36
e 35 41
e 35 75
e 35 125
e 35 190
e 36 60
e 36 63
e 36 72
e 36 100
e 36 116
e 36 191
e 37 42
e 37 101
e 37 110
e 38 55
e 38 94
e 38 121
e 38 129
e 38 157
e 39 48
e 39 54
e 39 102
e 39 114
e 39 120
e 39 138
e 39 143
e 40 57
e 41 77
e 41 86
e 41 95
e 41 111
e 41 172
e 42 51
e 42 61
e 42 89
e 42 100
e 42 110
e 42 139
e 42 169
e 42 188
e 43 50
e 43 66
e 43 76
e 43 168
e 43 195
e 44 52
e 44 62
e 44 82
e 44 123
e 45 99
e 45 110
e 45 198
e 46 49
e 46 112
e 46 149
e 46 158
e 46 166
e 46 168
e 46 175
e 46 185
e 47 87
e 47 96
e 47 124
e 48 57
e 48 135
e 48 141
e 48 142
e 48 143
e 48 147
e 48 183
e 49 64
e 49 77
e 49 94
e 49 134
e 49 157
e 49 184
e 50 78
e 50 150
e 50 179
e 50 187
e 51 88
e 52 87
e 52 94
e 52 193
e 52 195
e 53 59
e 53 153
e 54 55
e 54 64
e 54 98
e 54 129
e 54 200
e 55 103
e 56 74
e 56 107
e 56 135
e 56 180
e 57 92
e 57 137
e 58 76
e 58 103
e 58 133
e 58 148
e 58 174
e 58 175
e 59 63
e 59 66
e 59 67
e 59 106
e 59 113
e 59 158
e 59 166
e 60 95
e 61 62
e 61 69
e 61 127
e 61 144
e 61 151
e 61 155
e 61 160
e 61 183
e 61 186
e 61 189
e 62 84
e 62 97
e 63 80
e 63 89
e 63 97
e 63 106
e 63 163
e 64 98
e 64 119
e 65 103
e 65 175
e 65 198
e 66 100
e 66 176
e 67 103
e 67 153
e 67 186
e 68 74
e 68 101
e 68 114
e 68 176
e 69 79
e 69 93
e 69 107
e 69 160
e 69 176
e 69 186
e 70 73
e 70 91
e 70 114
e 70 142
e 70 147
e 70 152
e 71 122
e 71 173
e 72 148
e 72 161
e 73 76
e 73 95
e 73 181
e 74 197
e 75 88
e 75 98
e 75 154
e 75 164
e 75 193
e 76 129
e 76 171
e 77 81
e 77 83
e 77 104
e 77 128
e 77 172
e 78 131
e 80 91
e 80 109
e 80 116
e 82 88
e 82 183
e 83 91
e 83 107
e 83 120
e 83 167
e 83 180
e 83 197
e 84 86
e 84 111
e 84 134
e 84 188
e 85 101
e 85 113
e 85 127
e 85 152
e 86 106
e 86 156
e 86 163
e 87 111
e 88 132
e 89 126
e 89 183
e 90 123
e 90 168
e 90 173
e 90 181
e 90 195
e 91 92
e 91 154
e 91 195
e 92 187
e 92 190
e 93 131
e 93 159
e 94 140
e 94 170
e 95 99
e 95 162
e 99 101
e 99 136
e 99 150
e 101 105
e 101 126
e 101 169
e 104 117
e 105 167
e 106 161
e 107 115
e 107 117
e 107 160
e 107 172
e 108 112
e 108 120
e 109 136
e 109 137
e 109 144
e 109 146
e 109 155
e 109 169
e 110 191
e 112 173
e 113 128
e 113 130
e 116 140
e 117 125
e 117 165
e 118 159
e 119 182
e 122 126
e 123 189
e 123 199
e 125 132
e 125 154
e 125 178
e 126 146
e 126 157
e 126 191
e 127 132
e 127 141
e 128 134
e 128 172
e 128 182
e 128 198
e 129 156
e 130 187
e 132 141
e 132 185
e 136 170
e 137 182
e 139 173
e 140 179
e 145 167
e 148 162
e 150 178
e 150 181
e 150 192
e 150 199
e 151 163
e 151 190
e 152 165
e 155 171
e 156 180
e 163 200
e 164 165
e 166 198
e 167 184
e 170 192
e 170 200
e 172 179
e 172 190
e 172 193
e 172 194
e 175 184
e 183 196
